Maximize

3 y_0 + 3 y_1 + 2 y_2 + 1 y_3 + 3 y_4 + 1 y_5 + 1 y_6 + 1 y_7 + 0 y_8 + 1 y_9 + 5 y_10 + 2 y_11 + 2 y_12 + 2 y_13 + 2 y_14 + 0 y_15 + 4 y_16 + 1 y_17 + 3 y_18 + 2 y_19 + 5 y_20 + 4 y_21 + 1 y_22 + 1 y_23 + 1 y_24 + 0 y_25 + 4 y_26 + 3 y_27 + 4 y_28 + 5 y_29 + 4 y_30 + 3 y_31 + 3 y_32 + 4 y_33 + 3 y_34 + 1 y_35 + 1 y_36 + 2 y_37 + 1 y_38 + 1 y_39 + 4 y_40 + 2 y_41 + 1 y_42 + 0 y_43 + 3 y_44 + 4 y_45 + 1 y_46 + 3 y_47 + 1 y_48 + 1 y_49 + 1 y_50 + 4 y_51 + 1 y_52 + 2 y_53 + 1 y_54 + 4 y_55 + 4 y_56 + 3 y_57 + 3 y_58 + 2 y_59 + 0 y_60 + 2 y_61 + 1 y_62 + 3 y_63 + 4 y_64 + 0 y_65 + 2 y_66 + 5 y_67 + 3 y_68 + 1 y_69 + 1 y_70 + 1 y_71 + 1 y_72 + 2 y_73 + 3 y_74 + 2 y_75 + 2 y_76 + 1 y_77 + 0 y_78 + 1 y_79 + 3 y_80 + 2 y_81 + 5 y_82 + 5 y_83 + 0 y_84 + 3 y_85 + 0 y_86 + 5 y_87 + 4 y_88 + 1 y_89 + 1 y_90 + 1 y_91 + 0 y_92 + 2 y_93 + 2 y_94 + 0 y_95 + 2 y_96 + 0 y_97 + 3 y_98 + 1 y_99


Subject To

a0: 1308.4 y_0 + 1343.2 y_1 + 1300.9 y_2 + 1367.0 y_3 + 1230.9 y_4 + 1347.8 y_5 + 1983.6 y_6 + 1712.8 y_7 + 1436.5 y_8 + 1225.2 y_9 + 1516.6 y_10 + 1851.4 y_11 + 1537.7 y_12 + 1012.0 y_13 + 1218.3 y_14 + 1332.9 y_15 + 1434.4 y_16 + 1623.7 y_17 + 1433.5 y_18 + 1463.1 y_19 + 1901.8 y_20 + 1360.0 y_21 + 1099.9 y_22 + 1313.4 y_23 + 1250.8 y_24 + 1238.3 y_25 + 1414.4 y_26 + 1737.9 y_27 + 1054.9 y_28 + 1317.8 y_29 + 1899.2 y_30 + 1992.1 y_31 + 1189.5 y_32 + 1461.9 y_33 + 1342.3 y_34 + 1164.5 y_35 + 1488.2 y_36 + 1935.3 y_37 + 1171.3 y_38 + 1991.3 y_39 + 1312.0 y_40 + 1403.5 y_41 + 1872.7 y_42 + 1551.7 y_43 + 1046.1 y_44 + 1170.5 y_45 + 1518.3 y_46 + 1327.4 y_47 + 1888.7 y_48 + 1939.0 y_49 + 1830.8 y_50 + 1877.1 y_51 + 1438.3 y_52 + 1519.1 y_53 + 1063.9 y_54 + 1264.6 y_55 + 1555.8 y_56 + 1084.7 y_57 + 1624.5 y_58 + 1710.8 y_59 + 1312.8 y_60 + 1485.3 y_61 + 1418.9 y_62 + 1221.9 y_63 + 1087.0 y_64 + 1666.9 y_65 + 1177.5 y_66 + 1112.9 y_67 + 1163.2 y_68 + 1261.7 y_69 + 1025.1 y_70 + 1864.6 y_71 + 1618.2 y_72 + 1364.5 y_73 + 1290.2 y_74 + 1049.8 y_75 + 1356.2 y_76 + 1283.2 y_77 + 1511.4 y_78 + 1435.3 y_79 + 1048.0 y_80 + 1835.0 y_81 + 1047.6 y_82 + 1295.1 y_83 + 1355.4 y_84 + 1168.3 y_85 + 1584.5 y_86 + 1349.1 y_87 + 1761.4 y_88 + 1287.3 y_89 + 1984.9 y_90 + 1353.7 y_91 + 1206.0 y_92 + 1827.7 y_93 + 1109.9 y_94 + 1256.6 y_95 + 1739.0 y_96 + 1651.0 y_97 + 1437.6 y_98 + 1928.6 y_99 <= 49268.0
b0: y_3 + y_5 + y_15 + y_40 + y_52 + y_56 + y_57 + y_70 + y_87 >= 1
b1: y_4 + y_6 + y_27 + y_35 + y_41 + y_44 + y_50 + y_73 + y_76 + y_84 + y_90 >= 1
b2: y_4 + y_8 + y_23 + y_36 + y_41 + y_48 + y_49 + y_50 + y_56 + y_65 + y_66 + y_67 + y_71 + y_83 + y_84 + y_89 >= 1
b3: y_5 + y_21 + y_24 + y_32 + y_33 + y_48 + y_55 + y_57 + y_65 + y_71 + y_80 + y_88 + y_96 >= 1
b4: y_2 + y_11 + y_18 + y_22 + y_30 + y_42 + y_64 + y_66 + y_96 >= 1
b5: y_3 + y_11 + y_27 + y_42 + y_58 + y_68 + y_70 + y_75 + y_81 + y_87 + y_88 + y_98 >= 1
b6: y_2 + y_6 + y_21 + y_23 + y_29 + y_31 + y_37 + y_60 + y_62 + y_95 >= 1
b7: y_0 + y_19 + y_22 + y_34 + y_35 + y_37 + y_41 + y_53 + y_66 + y_68 + y_70 + y_73 + y_78 + y_80 + y_81 + y_97 >= 1
b8: y_4 + y_10 + y_17 + y_37 + y_40 + y_52 + y_54 + y_61 + y_63 + y_64 + y_69 + y_77 + y_99 >= 1
b9: y_0 + y_31 + y_35 + y_36 + y_39 + y_53 + y_58 + y_59 + y_60 + y_68 + y_76 + y_85 + y_89 + y_94 + y_95 + y_96 >= 1
c0: y_0 + y_43 <= 1
c1: y_0 + y_82 <= 1
c2: y_1 + y_42 <= 1
c3: y_1 + y_51 <= 1
c4: y_2 + y_12 <= 1
c5: y_2 + y_35 <= 1
c6: y_2 + y_48 <= 1
c7: y_2 + y_49 <= 1
c8: y_3 + y_54 <= 1
c9: y_3 + y_81 <= 1
c10: y_4 + y_19 <= 1
c11: y_4 + y_37 <= 1
c12: y_4 + y_71 <= 1
c13: y_4 + y_87 <= 1
c14: y_5 + y_17 <= 1
c15: y_5 + y_31 <= 1
c16: y_6 + y_47 <= 1
c17: y_6 + y_64 <= 1
c18: y_6 + y_86 <= 1
c19: y_7 + y_30 <= 1
c20: y_7 + y_96 <= 1
c21: y_8 + y_84 <= 1
c22: y_9 + y_39 <= 1
c23: y_10 + y_57 <= 1
c24: y_10 + y_96 <= 1
c25: y_11 + y_60 <= 1
c26: y_11 + y_75 <= 1
c27: y_12 + y_2 <= 1
c28: y_12 + y_22 <= 1
c29: y_13 + y_55 <= 1
c30: y_14 + y_28 <= 1
c31: y_14 + y_39 <= 1
c32: y_14 + y_91 <= 1
c33: y_15 + y_39 <= 1
c34: y_16 + y_58 <= 1
c35: y_17 + y_5 <= 1
c36: y_18 + y_65 <= 1
c37: y_18 + y_84 <= 1
c38: y_18 + y_93 <= 1
c39: y_19 + y_4 <= 1
c40: y_20 + y_81 <= 1
c41: y_21 + y_35 <= 1
c42: y_21 + y_75 <= 1
c43: y_22 + y_12 <= 1
c44: y_23 + y_62 <= 1
c45: y_23 + y_89 <= 1
c46: y_23 + y_98 <= 1
c47: y_24 + y_90 <= 1
c48: y_25 + y_63 <= 1
c49: y_26 + y_36 <= 1
c50: y_26 + y_46 <= 1
c51: y_26 + y_48 <= 1
c52: y_27 + y_72 <= 1
c53: y_27 + y_77 <= 1
c54: y_28 + y_14 <= 1
c55: y_28 + y_58 <= 1
c56: y_28 + y_68 <= 1
c57: y_29 + y_41 <= 1
c58: y_29 + y_94 <= 1
c59: y_30 + y_7 <= 1
c60: y_30 + y_53 <= 1
c61: y_30 + y_85 <= 1
c62: y_31 + y_5 <= 1
c63: y_31 + y_78 <= 1
c64: y_31 + y_92 <= 1
c65: y_32 + y_92 <= 1
c66: y_33 + y_82 <= 1
c67: y_34 + y_49 <= 1
c68: y_34 + y_69 <= 1
c69: y_34 + y_74 <= 1
c70: y_35 + y_2 <= 1
c71: y_35 + y_21 <= 1
c72: y_36 + y_26 <= 1
c73: y_36 + y_90 <= 1
c74: y_37 + y_4 <= 1
c75: y_37 + y_56 <= 1
c76: y_37 + y_95 <= 1
c77: y_38 + y_81 <= 1
c78: y_39 + y_9 <= 1
c79: y_39 + y_14 <= 1
c80: y_39 + y_15 <= 1
c81: y_40 + y_78 <= 1
c82: y_41 + y_29 <= 1
c83: y_41 + y_48 <= 1
c84: y_41 + y_79 <= 1
c85: y_42 + y_1 <= 1
c86: y_42 + y_89 <= 1
c87: y_43 + y_0 <= 1
c88: y_43 + y_87 <= 1
c89: y_44 + y_97 <= 1
c90: y_45 + y_62 <= 1
c91: y_45 + y_97 <= 1
c92: y_46 + y_26 <= 1
c93: y_46 + y_62 <= 1
c94: y_47 + y_6 <= 1
c95: y_47 + y_58 <= 1
c96: y_47 + y_78 <= 1
c97: y_47 + y_86 <= 1
c98: y_48 + y_2 <= 1
c99: y_48 + y_26 <= 1
c100: y_48 + y_41 <= 1
c101: y_48 + y_88 <= 1
c102: y_49 + y_2 <= 1
c103: y_49 + y_34 <= 1
c104: y_49 + y_82 <= 1
c105: y_49 + y_83 <= 1
c106: y_50 + y_60 <= 1
c107: y_51 + y_1 <= 1
c108: y_52 + y_66 <= 1
c109: y_53 + y_30 <= 1
c110: y_53 + y_75 <= 1
c111: y_54 + y_3 <= 1
c112: y_55 + y_13 <= 1
c113: y_55 + y_80 <= 1
c114: y_56 + y_37 <= 1
c115: y_56 + y_79 <= 1
c116: y_57 + y_10 <= 1
c117: y_58 + y_16 <= 1
c118: y_58 + y_28 <= 1
c119: y_58 + y_47 <= 1
c120: y_59 + y_60 <= 1
c121: y_60 + y_11 <= 1
c122: y_60 + y_50 <= 1
c123: y_60 + y_59 <= 1
c124: y_60 + y_76 <= 1
c125: y_61 + y_74 <= 1
c126: y_61 + y_77 <= 1
c127: y_62 + y_23 <= 1
c128: y_62 + y_45 <= 1
c129: y_62 + y_46 <= 1
c130: y_63 + y_25 <= 1
c131: y_63 + y_80 <= 1
c132: y_63 + y_84 <= 1
c133: y_64 + y_6 <= 1
c134: y_64 + y_70 <= 1
c135: y_65 + y_18 <= 1
c136: y_66 + y_52 <= 1
c137: y_66 + y_98 <= 1
c138: y_67 + y_70 <= 1
c139: y_68 + y_28 <= 1
c140: y_69 + y_34 <= 1
c141: y_69 + y_81 <= 1
c142: y_70 + y_64 <= 1
c143: y_70 + y_67 <= 1
c144: y_71 + y_4 <= 1
c145: y_72 + y_27 <= 1
c146: y_73 + y_85 <= 1
c147: y_74 + y_34 <= 1
c148: y_74 + y_61 <= 1
c149: y_75 + y_11 <= 1
c150: y_75 + y_21 <= 1
c151: y_75 + y_53 <= 1
c152: y_76 + y_60 <= 1
c153: y_77 + y_27 <= 1
c154: y_77 + y_61 <= 1
c155: y_77 + y_80 <= 1
c156: y_78 + y_31 <= 1
c157: y_78 + y_40 <= 1
c158: y_78 + y_47 <= 1
c159: y_79 + y_41 <= 1
c160: y_79 + y_56 <= 1
c161: y_80 + y_55 <= 1
c162: y_80 + y_63 <= 1
c163: y_80 + y_77 <= 1
c164: y_81 + y_3 <= 1
c165: y_81 + y_20 <= 1
c166: y_81 + y_38 <= 1
c167: y_81 + y_69 <= 1
c168: y_82 + y_0 <= 1
c169: y_82 + y_33 <= 1
c170: y_82 + y_49 <= 1
c171: y_83 + y_49 <= 1
c172: y_84 + y_8 <= 1
c173: y_84 + y_18 <= 1
c174: y_84 + y_63 <= 1
c175: y_85 + y_30 <= 1
c176: y_85 + y_73 <= 1
c177: y_86 + y_6 <= 1
c178: y_86 + y_47 <= 1
c179: y_87 + y_4 <= 1
c180: y_87 + y_43 <= 1
c181: y_88 + y_48 <= 1
c182: y_88 + y_99 <= 1
c183: y_89 + y_23 <= 1
c184: y_89 + y_42 <= 1
c185: y_90 + y_24 <= 1
c186: y_90 + y_36 <= 1
c187: y_91 + y_14 <= 1
c188: y_92 + y_31 <= 1
c189: y_92 + y_32 <= 1
c190: y_93 + y_18 <= 1
c191: y_94 + y_29 <= 1
c192: y_95 + y_37 <= 1
c193: y_96 + y_7 <= 1
c194: y_96 + y_10 <= 1
c195: y_97 + y_44 <= 1
c196: y_97 + y_45 <= 1
c197: y_98 + y_23 <= 1
c198: y_98 + y_66 <= 1
c199: y_99 + y_88 <= 1




Binary

y_0 y_1 y_2 y_3 y_4 y_5 y_6 y_7 y_8 y_9 y_10 y_11 y_12 y_13 y_14 y_15 y_16 y_17 y_18 y_19 y_20 y_21 y_22 y_23 y_24 y_25 y_26 y_27 y_28 y_29 y_30 y_31 y_32 y_33 y_34 y_35 y_36 y_37 y_38 y_39 y_40 y_41 y_42 y_43 y_44 y_45 y_46 y_47 y_48 y_49 y_50 y_51 y_52 y_53 y_54 y_55 y_56 y_57 y_58 y_59 y_60 y_61 y_62 y_63 y_64 y_65 y_66 y_67 y_68 y_69 y_70 y_71 y_72 y_73 y_74 y_75 y_76 y_77 y_78 y_79 y_80 y_81 y_82 y_83 y_84 y_85 y_86 y_87 y_88 y_89 y_90 y_91 y_92 y_93 y_94 y_95 y_96 y_97 y_98 y_99

 


End
